(set-info :smt-lib-version 2.6)
(set-logic QF_FP)
(set-info :source |
Generated by: Anastasiia Izycheva, Eva Darulova
Generated on: 2020-09-11
Generator: Pine (using Z3 Python API)
Application: Check inductiveness of a loop invariant
Target solver: CVC4

These benchmarks were generated while developing the tool Pine [1], which uses
CVC4/Z3 to check inductiveness of invariants. The work is described in [2].

[1] https://github.com/izycheva/pine
[2] A.Izycheva, E.Darulova, H.Seidl, SAS'20, "Counterexample- and Simulation-Guided Floating-Point Loop Invariant Synthesis"

 Loop:
   u' := u + 0.01 * v
   v' := v + 0.01 * (-0.5 * v - 9.81 * u)

 Input ranges:
   u in [0.0,0.0]
   v in [2.0,3.0]

 Invariant:
   -0.47*u + 0.01*v + 1.0*u^2 + -0.11*u*v + 0.05*v^2 <= 0.53
 and
   u in [-0.3,1.0]
   v in [-3.1,3.0]

 Query: Loop and Invariant and not Invariant'
|)
(set-info :license "https://creativecommons.org/licenses/by/4.0/")
(set-info :category "industrial")
(set-info :status unknown)
(declare-fun u!FP () (_ FloatingPoint 8 24))
(declare-fun v!FP () (_ FloatingPoint 8 24))
(declare-fun uFP () (_ FloatingPoint 8 24))
(declare-fun vFP () (_ FloatingPoint 8 24))
(assert
 (let ((?x239 (fp.mul roundNearestTiesToEven (fp.mul roundNearestTiesToEven (fp #b0 #x7a #b10011001100110011001100) v!FP) v!FP)))
 (let ((?x163 (fp.add roundNearestTiesToEven ?x239 (fp.mul roundNearestTiesToEven (fp #b1 #x7d #b11100001010001111010111) u!FP))))
 (let ((?x221 (fp.mul roundNearestTiesToEven (fp.mul roundNearestTiesToEven (fp #b1 #x7b #b11000010100011110101110) u!FP) v!FP)))
 (let ((?x127 (fp.mul roundNearestTiesToEven (fp.mul roundNearestTiesToEven (fp #b0 #x7f #b00000000000000000000000) u!FP) u!FP)))
 (let ((?x222 (fp.add roundNearestTiesToEven ?x127 (fp.add roundNearestTiesToEven ?x221 ?x163))))
 (let ((?x250 (fp.add roundNearestTiesToEven (fp.mul roundNearestTiesToEven (fp #b0 #x78 #b01000111101011100001010) v!FP) ?x222)))
 (let (($x132 (fp.leq ?x250 (fp #b0 #x7e #b00001111010111000010100))))
 (let (($x123 (fp.leq v!FP (fp #b0 #x80 #b10000000000000000000000))))
 (let (($x165 (fp.leq (fp #b1 #x80 #b10001100110011001100110) v!FP)))
 (let (($x168 (fp.leq u!FP (fp #b0 #x7f #b00000000000000000000000))))
 (let (($x160 (fp.leq (fp #b1 #x7d #b00110011001100110011001) u!FP)))
 (let ((?x147 (fp.mul roundNearestTiesToEven (fp #b0 #x82 #b00111001111010111000010) uFP)))
 (let ((?x148 (fp.sub roundNearestTiesToEven (fp.mul roundNearestTiesToEven (fp.neg (fp #b0 #x7e #b00000000000000000000000)) vFP) ?x147)))
 (let ((?x150 (fp.add roundNearestTiesToEven vFP (fp.mul roundNearestTiesToEven (fp #b0 #x78 #b01000111101011100001010) ?x148))))
 (let ((?x140 (fp.mul roundNearestTiesToEven (fp #b0 #x78 #b01000111101011100001010) vFP)))
 (let (($x142 (fp.eq u!FP (fp.add roundNearestTiesToEven uFP ?x140))))
 (let ((?x100 (fp.mul roundNearestTiesToEven (fp.mul roundNearestTiesToEven (fp #b0 #x7a #b10011001100110011001100) vFP) vFP)))
 (let ((?x233 (fp.add roundNearestTiesToEven ?x100 (fp.mul roundNearestTiesToEven (fp #b1 #x7d #b11100001010001111010111) uFP))))
 (let ((?x120 (fp.mul roundNearestTiesToEven (fp.mul roundNearestTiesToEven (fp #b1 #x7b #b11000010100011110101110) uFP) vFP)))
 (let ((?x105 (fp.mul roundNearestTiesToEven (fp.mul roundNearestTiesToEven (fp #b0 #x7f #b00000000000000000000000) uFP) uFP)))
 (let ((?x206 (fp.add roundNearestTiesToEven ?x105 (fp.add roundNearestTiesToEven ?x120 ?x233))))
 (let (($x196 (fp.leq (fp.add roundNearestTiesToEven ?x140 ?x206) (fp #b0 #x7e #b00001111010111000010100))))
 (let (($x92 (fp.leq vFP (fp #b0 #x80 #b10000000000000000000000))))
 (let (($x180 (fp.leq (fp #b1 #x80 #b10001100110011001100110) vFP)))
 (let (($x191 (fp.leq uFP (fp #b0 #x7f #b00000000000000000000000))))
 (let (($x167 (fp.leq (fp #b1 #x7d #b00110011001100110011001) uFP)))
 (and (and (and $x167 $x191 $x180 $x92) $x196 ) (and $x142 (fp.eq v!FP ?x150)) (or (not $x160) (not $x168) (not $x165) (not $x123) (not $x132))))))))))))))))))))))))))))))
(check-sat)
(exit)
